500 4
0 0 0 1.8
0 25 45 0.5
0 50 57.5 0.5
0 75 70 4.7
1 0 0 1.8
1 25 45 0.5
1 50 57.5 0.5
1 75 70 4.7
2 0 0 1.8
2 25 45 0.5
2 50 57.5 0.5
2 75 70 4.7
3 0 0 1.8
3 25 45 0.5
3 50 57.5 0.5
3 75 70 4.7
4 0 0 1.8
4 25 45 0.5
4 50 57.5 0.5
4 75 70 4.7
5 0 0 1.8
5 25 45 0.5
5 50 57.5 0.5
5 75 70 4.7
6 0 0 1.8
6 25 45 0.5
6 50 57.5 0.5
6 75 70 4.7
7 0 0 1.8
7 25 45 0.5
7 50 57.5 0.5
7 75 70 4.7
8 0 0 1.8
8 25 45 0.5
8 50 57.5 0.5
8 75 70 4.7
9 0 0 1.8
9 25 45 0.5
9 50 57.5 0.5
9 75 70 4.7
10 0 0 1.8
10 25 45 0.5
10 50 57.5 0.5
10 75 70 4.7
11 0 0 1.8
11 25 45 0.5
11 50 57.5 0.5
11 75 70 4.7
12 0 0 1.8
12 25 45 0.5
12 50 57.5 0.5
12 75 70 4.7
13 0 0 1.8
13 25 45 0.5
13 50 57.5 0.5
13 75 70 4.7
14 0 0 1.8
14 25 45 0.5
14 50 57.5 0.5
14 75 70 4.7
15 0 0 1.8
15 25 45 0.5
15 50 57.5 0.5
15 75 70 4.7
16 0 0 1.8
16 25 45 0.5
16 50 57.5 0.5
16 75 70 4.7
17 0 0 1.8
17 25 45 0.5
17 50 57.5 0.5
17 75 70 4.7
18 0 0 1.8
18 25 45 0.5
18 50 57.5 0.5
18 75 70 4.7
19 0 0 1.8
19 25 45 0.5
19 50 57.5 0.5
19 75 70 4.7
20 0 0 1.8
20 25 45 0.5
20 50 57.5 0.5
20 75 70 4.7
21 0 0 1.8
21 25 45 0.5
21 50 57.5 0.5
21 75 70 4.7
22 0 0 1.8
22 25 45 0.5
22 50 57.5 0.5
22 75 70 4.7
23 0 0 1.8
23 25 45 0.5
23 50 57.5 0.5
23 75 70 4.7
24 0 0 1.8
24 25 45 0.5
24 50 57.5 0.5
24 75 70 4.7
25 0 0 1.8
25 25 45 0.5
25 50 57.5 0.5
25 75 70 4.7
26 0 0 1.8
26 25 45 0.5
26 50 57.5 0.5
26 75 70 4.7
27 0 0 1.8
27 25 45 0.5
27 50 57.5 0.5
27 75 70 4.7
28 0 0 1.8
28 25 45 0.5
28 50 57.5 0.5
28 75 70 4.7
29 0 0 1.8
29 25 45 0.5
29 50 57.5 0.5
29 75 70 4.7
30 0 0 1.8
30 25 45 0.5
30 50 57.5 0.5
30 75 70 4.7
31 0 0 1.8
31 25 45 0.5
31 50 57.5 0.5
31 75 70 4.7
32 0 0 1.8
32 25 45 0.5
32 50 57.5 0.5
32 75 70 4.7
33 0 0 1.8
33 25 45 0.5
33 50 57.5 0.5
33 75 70 4.7
34 0 0 1.8
34 25 45 0.5
34 50 57.5 0.5
34 75 70 4.7
35 0 0 1.8
35 25 45 0.5
35 50 57.5 0.5
35 75 70 4.7
36 0 0 1.8
36 25 45 0.5
36 50 57.5 0.5
36 75 70 4.7
37 0 0 1.8
37 25 45 0.5
37 50 57.5 0.5
37 75 70 4.7
38 0 0 1.8
38 25 45 0.5
38 50 57.5 0.5
38 75 70 4.7
39 0 0 1.8
39 25 45 0.5
39 50 57.5 0.5
39 75 70 4.7
40 0 0 1.8
40 25 45 0.5
40 50 57.5 0.5
40 75 70 4.7
41 0 0 1.8
41 25 45 0.5
41 50 57.5 0.5
41 75 70 4.7
42 0 0 1.8
42 25 45 0.5
42 50 57.5 0.5
42 75 70 4.7
43 0 0 1.8
43 25 45 0.5
43 50 57.5 0.5
43 75 70 4.7
44 0 0 1.8
44 25 45 0.5
44 50 57.5 0.5
44 75 70 4.7
45 0 0 1.8
45 25 45 0.5
45 50 57.5 0.5
45 75 70 4.7
46 0 0 1.8
46 25 45 0.5
46 50 57.5 0.5
46 75 70 4.7
47 0 0 1.8
47 25 45 0.5
47 50 57.5 0.5
47 75 70 4.7
48 0 0 1.8
48 25 45 0.5
48 50 57.5 0.5
48 75 70 4.7
49 0 0 1.8
49 25 45 0.5
49 50 57.5 0.5
49 75 70 4.7
50 0 0 1.8
50 25 45 0.5
50 50 57.5 0.5
50 75 70 4.7
51 0 0 1.8
51 25 45 0.5
51 50 57.5 0.5
51 75 70 4.7
52 0 0 1.8
52 25 45 0.5
52 50 57.5 0.5
52 75 70 4.7
53 0 0 1.8
53 25 45 0.5
53 50 57.5 0.5
53 75 70 4.7
54 0 0 1.8
54 25 45 0.5
54 50 57.5 0.5
54 75 70 4.7
55 0 0 1.8
55 25 45 0.5
55 50 57.5 0.5
55 75 70 4.7
56 0 0 1.8
56 25 45 0.5
56 50 57.5 0.5
56 75 70 4.7
57 0 0 1.8
57 25 45 0.5
57 50 57.5 0.5
57 75 70 4.7
58 0 0 1.8
58 25 45 0.5
58 50 57.5 0.5
58 75 70 4.7
59 0 0 1.8
59 25 45 0.5
59 50 57.5 0.5
59 75 70 4.7
60 0 0 1.8
60 25 45 0.5
60 50 57.5 0.5
60 75 70 4.7
61 0 0 1.8
61 25 45 0.5
61 50 57.5 0.5
61 75 70 4.7
62 0 0 1.8
62 25 45 0.5
62 50 57.5 0.5
62 75 70 4.7
63 0 0 1.8
63 25 45 0.5
63 50 57.5 0.5
63 75 70 4.7
64 0 0 1.8
64 25 45 0.5
64 50 57.5 0.5
64 75 70 4.7
65 0 0 1.8
65 25 45 0.5
65 50 57.5 0.5
65 75 70 4.7
66 0 0 1.8
66 25 45 0.5
66 50 57.5 0.5
66 75 70 4.7
67 0 0 1.8
67 25 45 0.5
67 50 57.5 0.5
67 75 70 4.7
68 0 0 1.8
68 25 45 0.5
68 50 57.5 0.5
68 75 70 4.7
69 0 0 1.8
69 25 45 0.5
69 50 57.5 0.5
69 75 70 4.7
70 0 0 1.8
70 25 45 0.5
70 50 57.5 0.5
70 75 70 4.7
71 0 0 1.8
71 25 45 0.5
71 50 57.5 0.5
71 75 70 4.7
72 0 0 1.8
72 25 45 0.5
72 50 57.5 0.5
72 75 70 4.7
73 0 0 1.8
73 25 45 0.5
73 50 57.5 0.5
73 75 70 4.7
74 0 0 1.8
74 25 45 0.5
74 50 57.5 0.5
74 75 70 4.7
75 0 0 1.8
75 25 45 0.5
75 50 57.5 0.5
75 75 70 4.7
76 0 0 1.8
76 25 45 0.5
76 50 57.5 0.5
76 75 70 4.7
77 0 0 1.8
77 25 45 0.5
77 50 57.5 0.5
77 75 70 4.7
78 0 0 1.8
78 25 45 0.5
78 50 57.5 0.5
78 75 70 4.7
79 0 0 1.8
79 25 45 0.5
79 50 57.5 0.5
79 75 70 4.7
80 0 0 1.8
80 25 45 0.5
80 50 57.5 0.5
80 75 70 4.7
81 0 0 1.8
81 25 45 0.5
81 50 57.5 0.5
81 75 70 4.7
82 0 0 1.8
82 25 45 0.5
82 50 57.5 0.5
82 75 70 4.7
83 0 0 1.8
83 25 45 0.5
83 50 57.5 0.5
83 75 70 4.7
84 0 0 1.8
84 25 45 0.5
84 50 57.5 0.5
84 75 70 4.7
85 0 0 1.8
85 25 45 0.5
85 50 57.5 0.5
85 75 70 4.7
86 0 0 1.8
86 25 45 0.5
86 50 57.5 0.5
86 75 70 4.7
87 0 0 1.8
87 25 45 0.5
87 50 57.5 0.5
87 75 70 4.7
88 0 0 1.8
88 25 45 0.5
88 50 57.5 0.5
88 75 70 4.7
89 0 0 1.8
89 25 45 0.5
89 50 57.5 0.5
89 75 70 4.7
90 0 0 1.8
90 25 45 0.5
90 50 57.5 0.5
90 75 70 4.7
91 0 0 1.8
91 25 45 0.5
91 50 57.5 0.5
91 75 70 4.7
92 0 0 1.8
92 25 45 0.5
92 50 57.5 0.5
92 75 70 4.7
93 0 0 1.8
93 25 45 0.5
93 50 57.5 0.5
93 75 70 4.7
94 0 0 1.8
94 25 45 0.5
94 50 57.5 0.5
94 75 70 4.7
95 0 0 1.8
95 25 45 0.5
95 50 57.5 0.5
95 75 70 4.7
96 0 0 1.8
96 25 45 0.5
96 50 57.5 0.5
96 75 70 4.7
97 0 0 1.8
97 25 45 0.5
97 50 57.5 0.5
97 75 70 4.7
98 0 0 1.8
98 25 45 0.5
98 50 57.5 0.5
98 75 70 4.7
99 0 0 1.8
99 25 45 0.5
99 50 57.5 0.5
99 75 70 4.7
100 0 0 1.8
100 25 45 0.5
100 50 57.5 0.5
100 75 70 4.7
101 0 0 1.8
101 25 45 0.5
101 50 57.5 0.5
101 75 70 4.7
102 0 0 1.8
102 25 45 0.5
102 50 57.5 0.5
102 75 70 4.7
103 0 0 1.8
103 25 45 0.5
103 50 57.5 0.5
103 75 70 4.7
104 0 0 1.8
104 25 45 0.5
104 50 57.5 0.5
104 75 70 4.7
105 0 0 1.8
105 25 45 0.5
105 50 57.5 0.5
105 75 70 4.7
106 0 0 1.8
106 25 45 0.5
106 50 57.5 0.5
106 75 70 4.7
107 0 0 1.8
107 25 45 0.5
107 50 57.5 0.5
107 75 70 4.7
108 0 0 1.8
108 25 45 0.5
108 50 57.5 0.5
108 75 70 4.7
109 0 0 1.8
109 25 45 0.5
109 50 57.5 0.5
109 75 70 4.7
110 0 0 1.8
110 25 45 0.5
110 50 57.5 0.5
110 75 70 4.7
111 0 0 1.8
111 25 45 0.5
111 50 57.5 0.5
111 75 70 4.7
112 0 0 1.8
112 25 45 0.5
112 50 57.5 0.5
112 75 70 4.7
113 0 0 1.8
113 25 45 0.5
113 50 57.5 0.5
113 75 70 4.7
114 0 0 1.8
114 25 45 0.5
114 50 57.5 0.5
114 75 70 4.7
115 0 0 1.8
115 25 45 0.5
115 50 57.5 0.5
115 75 70 4.7
116 0 0 1.8
116 25 45 0.5
116 50 57.5 0.5
116 75 70 4.7
117 0 0 1.8
117 25 45 0.5
117 50 57.5 0.5
117 75 70 4.7
118 0 0 1.8
118 25 45 0.5
118 50 57.5 0.5
118 75 70 4.7
119 0 0 1.8
119 25 45 0.5
119 50 57.5 0.5
119 75 70 4.7
120 0 0 1.8
120 25 45 0.5
120 50 57.5 0.5
120 75 70 4.7
121 0 0 1.8
121 25 45 0.5
121 50 57.5 0.5
121 75 70 4.7
122 0 0 1.8
122 25 45 0.5
122 50 57.5 0.5
122 75 70 4.7
123 0 0 1.8
123 25 45 0.5
123 50 57.5 0.5
123 75 70 4.7
124 0 0 1.8
124 25 45 0.5
124 50 57.5 0.5
124 75 70 4.7
125 0 0 1.8
125 25 45 0.5
125 50 57.5 0.5
125 75 70 4.7
126 0 0 1.8
126 25 45 0.5
126 50 57.5 0.5
126 75 70 4.7
127 0 0 1.8
127 25 45 0.5
127 50 57.5 0.5
127 75 70 4.7
128 0 0 1.8
128 25 45 0.5
128 50 57.5 0.5
128 75 70 4.7
129 0 0 1.8
129 25 45 0.5
129 50 57.5 0.5
129 75 70 4.7
130 0 0 1.8
130 25 45 0.5
130 50 57.5 0.5
130 75 70 4.7
131 0 0 1.8
131 25 45 0.5
131 50 57.5 0.5
131 75 70 4.7
132 0 0 1.8
132 25 45 0.5
132 50 57.5 0.5
132 75 70 4.7
133 0 0 1.8
133 25 45 0.5
133 50 57.5 0.5
133 75 70 4.7
134 0 0 1.8
134 25 45 0.5
134 50 57.5 0.5
134 75 70 4.7
135 0 0 1.8
135 25 45 0.5
135 50 57.5 0.5
135 75 70 4.7
136 0 0 1.8
136 25 45 0.5
136 50 57.5 0.5
136 75 70 4.7
137 0 0 1.8
137 25 45 0.5
137 50 57.5 0.5
137 75 70 4.7
138 0 0 1.8
138 25 45 0.5
138 50 57.5 0.5
138 75 70 4.7
139 0 0 1.8
139 25 45 0.5
139 50 57.5 0.5
139 75 70 4.7
140 0 0 1.8
140 25 45 0.5
140 50 57.5 0.5
140 75 70 4.7
141 0 0 1.8
141 25 45 0.5
141 50 57.5 0.5
141 75 70 4.7
142 0 0 1.8
142 25 45 0.5
142 50 57.5 0.5
142 75 70 4.7
143 0 0 1.8
143 25 45 0.5
143 50 57.5 0.5
143 75 70 4.7
144 0 0 1.8
144 25 45 0.5
144 50 57.5 0.5
144 75 70 4.7
145 0 0 1.8
145 25 45 0.5
145 50 57.5 0.5
145 75 70 4.7
146 0 0 1.8
146 25 45 0.5
146 50 57.5 0.5
146 75 70 4.7
147 0 0 1.8
147 25 45 0.5
147 50 57.5 0.5
147 75 70 4.7
148 0 0 1.8
148 25 45 0.5
148 50 57.5 0.5
148 75 70 4.7
149 0 0 1.8
149 25 45 0.5
149 50 57.5 0.5
149 75 70 4.7
150 0 0 1.8
150 25 45 0.5
150 50 57.5 0.5
150 75 70 4.7
151 0 0 1.8
151 25 45 0.5
151 50 57.5 0.5
151 75 70 4.7
152 0 0 1.8
152 25 45 0.5
152 50 57.5 0.5
152 75 70 4.7
153 0 0 1.8
153 25 45 0.5
153 50 57.5 0.5
153 75 70 4.7
154 0 0 1.8
154 25 45 0.5
154 50 57.5 0.5
154 75 70 4.7
155 0 0 1.8
155 25 45 0.5
155 50 57.5 0.5
155 75 70 4.7
156 0 0 1.8
156 25 45 0.5
156 50 57.5 0.5
156 75 70 4.7
157 0 0 1.8
157 25 45 0.5
157 50 57.5 0.5
157 75 70 4.7
158 0 0 1.8
158 25 45 0.5
158 50 57.5 0.5
158 75 70 4.7
159 0 0 1.8
159 25 45 0.5
159 50 57.5 0.5
159 75 70 4.7
160 0 0 1.8
160 25 45 0.5
160 50 57.5 0.5
160 75 70 4.7
161 0 0 1.8
161 25 45 0.5
161 50 57.5 0.5
161 75 70 4.7
162 0 0 1.8
162 25 45 0.5
162 50 57.5 0.5
162 75 70 4.7
163 0 0 1.8
163 25 45 0.5
163 50 57.5 0.5
163 75 70 4.7
164 0 0 1.8
164 25 45 0.5
164 50 57.5 0.5
164 75 70 4.7
165 0 0 1.8
165 25 45 0.5
165 50 57.5 0.5
165 75 70 4.7
166 0 0 1.8
166 25 45 0.5
166 50 57.5 0.5
166 75 70 4.7
167 0 0 1.8
167 25 45 0.5
167 50 57.5 0.5
167 75 70 4.7
168 0 0 1.8
168 25 45 0.5
168 50 57.5 0.5
168 75 70 4.7
169 0 0 1.8
169 25 45 0.5
169 50 57.5 0.5
169 75 70 4.7
170 0 0 1.8
170 25 45 0.5
170 50 57.5 0.5
170 75 70 4.7
171 0 0 1.8
171 25 45 0.5
171 50 57.5 0.5
171 75 70 4.7
172 0 0 1.8
172 25 45 0.5
172 50 57.5 0.5
172 75 70 4.7
173 0 0 1.8
173 25 45 0.5
173 50 57.5 0.5
173 75 70 4.7
174 0 0 1.8
174 25 45 0.5
174 50 57.5 0.5
174 75 70 4.7
175 0 0 1.8
175 25 45 0.5
175 50 57.5 0.5
175 75 70 4.7
176 0 0 1.8
176 25 45 0.5
176 50 57.5 0.5
176 75 70 4.7
177 0 0 1.8
177 25 45 0.5
177 50 57.5 0.5
177 75 70 4.7
178 0 0 1.8
178 25 45 0.5
178 50 57.5 0.5
178 75 70 4.7
179 0 0 1.8
179 25 45 0.5
179 50 57.5 0.5
179 75 70 4.7
180 0 0 1.8
180 25 45 0.5
180 50 57.5 0.5
180 75 70 4.7
181 0 0 1.8
181 25 45 0.5
181 50 57.5 0.5
181 75 70 4.7
182 0 0 1.8
182 25 45 0.5
182 50 57.5 0.5
182 75 70 4.7
183 0 0 1.8
183 25 45 0.5
183 50 57.5 0.5
183 75 70 4.7
184 0 0 1.8
184 25 45 0.5
184 50 57.5 0.5
184 75 70 4.7
185 0 0 1.8
185 25 45 0.5
185 50 57.5 0.5
185 75 70 4.7
186 0 0 1.8
186 25 45 0.5
186 50 57.5 0.5
186 75 70 4.7
187 0 0 1.8
187 25 45 0.5
187 50 57.5 0.5
187 75 70 4.7
188 0 0 1.8
188 25 45 0.5
188 50 57.5 0.5
188 75 70 4.7
189 0 0 1.8
189 25 45 0.5
189 50 57.5 0.5
189 75 70 4.7
190 0 0 1.8
190 25 45 0.5
190 50 57.5 0.5
190 75 70 4.7
191 0 0 1.8
191 25 45 0.5
191 50 57.5 0.5
191 75 70 4.7
192 0 0 1.8
192 25 45 0.5
192 50 57.5 0.5
192 75 70 4.7
193 0 0 1.8
193 25 45 0.5
193 50 57.5 0.5
193 75 70 4.7
194 0 0 1.8
194 25 45 0.5
194 50 57.5 0.5
194 75 70 4.7
195 0 0 1.8
195 25 45 0.5
195 50 57.5 0.5
195 75 70 4.7
196 0 0 1.8
196 25 45 0.5
196 50 57.5 0.5
196 75 70 4.7
197 0 0 1.8
197 25 45 0.5
197 50 57.5 0.5
197 75 70 4.7
198 0 0 1.8
198 25 45 0.5
198 50 57.5 0.5
198 75 70 4.7
199 0 0 1.8
199 25 45 0.5
199 50 57.5 0.5
199 75 70 4.7
200 0 0 1.8
200 25 45 0.5
200 50 57.5 0.5
200 75 70 4.7
201 0 0 1.8
201 25 45 0.5
201 50 57.5 0.5
201 75 70 4.7
202 0 0 1.8
202 25 45 0.5
202 50 57.5 0.5
202 75 70 4.7
203 0 0 1.8
203 25 45 0.5
203 50 57.5 0.5
203 75 70 4.7
204 0 0 1.8
204 25 45 0.5
204 50 57.5 0.5
204 75 70 4.7
205 0 0 1.8
205 25 45 0.5
205 50 57.5 0.5
205 75 70 4.7
206 0 0 1.8
206 25 45 0.5
206 50 57.5 0.5
206 75 70 4.7
207 0 0 1.8
207 25 45 0.5
207 50 57.5 0.5
207 75 70 4.7
208 0 0 1.8
208 25 45 0.5
208 50 57.5 0.5
208 75 70 4.7
209 0 0 1.8
209 25 45 0.5
209 50 57.5 0.5
209 75 70 4.7
210 0 0 1.8
210 25 45 0.5
210 50 57.5 0.5
210 75 70 4.7
211 0 0 1.8
211 25 45 0.5
211 50 57.5 0.5
211 75 70 4.7
212 0 0 1.8
212 25 45 0.5
212 50 57.5 0.5
212 75 70 4.7
213 0 0 1.8
213 25 45 0.5
213 50 57.5 0.5
213 75 70 4.7
214 0 0 1.8
214 25 45 0.5
214 50 57.5 0.5
214 75 70 4.7
215 0 0 1.8
215 25 45 0.5
215 50 57.5 0.5
215 75 70 4.7
216 0 0 1.8
216 25 45 0.5
216 50 57.5 0.5
216 75 70 4.7
217 0 0 1.8
217 25 45 0.5
217 50 57.5 0.5
217 75 70 4.7
218 0 0 1.8
218 25 45 0.5
218 50 57.5 0.5
218 75 70 4.7
219 0 0 1.8
219 25 45 0.5
219 50 57.5 0.5
219 75 70 4.7
220 0 0 1.8
220 25 45 0.5
220 50 57.5 0.5
220 75 70 4.7
221 0 0 1.8
221 25 45 0.5
221 50 57.5 0.5
221 75 70 4.7
222 0 0 1.8
222 25 45 0.5
222 50 57.5 0.5
222 75 70 4.7
223 0 0 1.8
223 25 45 0.5
223 50 57.5 0.5
223 75 70 4.7
224 0 0 1.8
224 25 45 0.5
224 50 57.5 0.5
224 75 70 4.7
225 0 0 1.8
225 25 45 0.5
225 50 57.5 0.5
225 75 70 4.7
226 0 0 1.8
226 25 45 0.5
226 50 57.5 0.5
226 75 70 4.7
227 0 0 1.8
227 25 45 0.5
227 50 57.5 0.5
227 75 70 4.7
228 0 0 1.8
228 25 45 0.5
228 50 57.5 0.5
228 75 70 4.7
229 0 0 1.8
229 25 45 0.5
229 50 57.5 0.5
229 75 70 4.7
230 0 0 1.8
230 25 45 0.5
230 50 57.5 0.5
230 75 70 4.7
231 0 0 1.8
231 25 45 0.5
231 50 57.5 0.5
231 75 70 4.7
232 0 0 1.8
232 25 45 0.5
232 50 57.5 0.5
232 75 70 4.7
233 0 0 1.8
233 25 45 0.5
233 50 57.5 0.5
233 75 70 4.7
234 0 0 1.8
234 25 45 0.5
234 50 57.5 0.5
234 75 70 4.7
235 0 0 1.8
235 25 45 0.5
235 50 57.5 0.5
235 75 70 4.7
236 0 0 1.8
236 25 45 0.5
236 50 57.5 0.5
236 75 70 4.7
237 0 0 1.8
237 25 45 0.5
237 50 57.5 0.5
237 75 70 4.7
238 0 0 1.8
238 25 45 0.5
238 50 57.5 0.5
238 75 70 4.7
239 0 0 1.8
239 25 45 0.5
239 50 57.5 0.5
239 75 70 4.7
240 0 0 1.8
240 25 45 0.5
240 50 57.5 0.5
240 75 70 4.7
241 0 0 1.8
241 25 45 0.5
241 50 57.5 0.5
241 75 70 4.7
242 0 0 1.8
242 25 45 0.5
242 50 57.5 0.5
242 75 70 4.7
243 0 0 1.8
243 25 45 0.5
243 50 57.5 0.5
243 75 70 4.7
244 0 0 1.8
244 25 45 0.5
244 50 57.5 0.5
244 75 70 4.7
245 0 0 1.8
245 25 45 0.5
245 50 57.5 0.5
245 75 70 4.7
246 0 0 1.8
246 25 45 0.5
246 50 57.5 0.5
246 75 70 4.7
247 0 0 1.8
247 25 45 0.5
247 50 57.5 0.5
247 75 70 4.7
248 0 0 1.8
248 25 45 0.5
248 50 57.5 0.5
248 75 70 4.7
249 0 0 1.8
249 25 45 0.5
249 50 57.5 0.5
249 75 70 4.7
250 0 0 1.8
250 25 45 0.5
250 50 57.5 0.5
250 75 70 4.7
251 0 0 1.8
251 25 45 0.5
251 50 57.5 0.5
251 75 70 4.7
252 0 0 1.8
252 25 45 0.5
252 50 57.5 0.5
252 75 70 4.7
253 0 0 1.8
253 25 45 0.5
253 50 57.5 0.5
253 75 70 4.7
254 0 0 1.8
254 25 45 0.5
254 50 57.5 0.5
254 75 70 4.7
255 0 0 1.8
255 25 45 0.5
255 50 57.5 0.5
255 75 70 4.7
256 0 0 1.8
256 25 45 0.5
256 50 57.5 0.5
256 75 70 4.7
257 0 0 1.8
257 25 45 0.5
257 50 57.5 0.5
257 75 70 4.7
258 0 0 1.8
258 25 45 0.5
258 50 57.5 0.5
258 75 70 4.7
259 0 0 1.8
259 25 45 0.5
259 50 57.5 0.5
259 75 70 4.7
260 0 0 1.8
260 25 45 0.5
260 50 57.5 0.5
260 75 70 4.7
261 0 0 1.8
261 25 45 0.5
261 50 57.5 0.5
261 75 70 4.7
262 0 0 1.8
262 25 45 0.5
262 50 57.5 0.5
262 75 70 4.7
263 0 0 1.8
263 25 45 0.5
263 50 57.5 0.5
263 75 70 4.7
264 0 0 1.8
264 25 45 0.5
264 50 57.5 0.5
264 75 70 4.7
265 0 0 1.8
265 25 45 0.5
265 50 57.5 0.5
265 75 70 4.7
266 0 0 1.8
266 25 45 0.5
266 50 57.5 0.5
266 75 70 4.7
267 0 0 1.8
267 25 45 0.5
267 50 57.5 0.5
267 75 70 4.7
268 0 0 1.8
268 25 45 0.5
268 50 57.5 0.5
268 75 70 4.7
269 0 0 1.8
269 25 45 0.5
269 50 57.5 0.5
269 75 70 4.7
270 0 0 1.8
270 25 45 0.5
270 50 57.5 0.5
270 75 70 4.7
271 0 0 1.8
271 25 45 0.5
271 50 57.5 0.5
271 75 70 4.7
272 0 0 1.8
272 25 45 0.5
272 50 57.5 0.5
272 75 70 4.7
273 0 0 1.8
273 25 45 0.5
273 50 57.5 0.5
273 75 70 4.7
274 0 0 1.8
274 25 45 0.5
274 50 57.5 0.5
274 75 70 4.7
275 0 0 1.8
275 25 45 0.5
275 50 57.5 0.5
275 75 70 4.7
276 0 0 1.8
276 25 45 0.5
276 50 57.5 0.5
276 75 70 4.7
277 0 0 1.8
277 25 45 0.5
277 50 57.5 0.5
277 75 70 4.7
278 0 0 1.8
278 25 45 0.5
278 50 57.5 0.5
278 75 70 4.7
279 0 0 1.8
279 25 45 0.5
279 50 57.5 0.5
279 75 70 4.7
280 0 0 1.8
280 25 45 0.5
280 50 57.5 0.5
280 75 70 4.7
281 0 0 1.8
281 25 45 0.5
281 50 57.5 0.5
281 75 70 4.7
282 0 0 1.8
282 25 45 0.5
282 50 57.5 0.5
282 75 70 4.7
283 0 0 1.8
283 25 45 0.5
283 50 57.5 0.5
283 75 70 4.7
284 0 0 1.8
284 25 45 0.5
284 50 57.5 0.5
284 75 70 4.7
285 0 0 1.8
285 25 45 0.5
285 50 57.5 0.5
285 75 70 4.7
286 0 0 1.8
286 25 45 0.5
286 50 57.5 0.5
286 75 70 4.7
287 0 0 1.8
287 25 45 0.5
287 50 57.5 0.5
287 75 70 4.7
288 0 0 1.8
288 25 45 0.5
288 50 57.5 0.5
288 75 70 4.7
289 0 0 1.8
289 25 45 0.5
289 50 57.5 0.5
289 75 70 4.7
290 0 0 1.8
290 25 45 0.5
290 50 57.5 0.5
290 75 70 4.7
291 0 0 1.8
291 25 45 0.5
291 50 57.5 0.5
291 75 70 4.7
292 0 0 1.8
292 25 45 0.5
292 50 57.5 0.5
292 75 70 4.7
293 0 0 1.8
293 25 45 0.5
293 50 57.5 0.5
293 75 70 4.7
294 0 0 1.8
294 25 45 0.5
294 50 57.5 0.5
294 75 70 4.7
295 0 0 1.8
295 25 45 0.5
295 50 57.5 0.5
295 75 70 4.7
296 0 0 1.8
296 25 45 0.5
296 50 57.5 0.5
296 75 70 4.7
297 0 0 1.8
297 25 45 0.5
297 50 57.5 0.5
297 75 70 4.7
298 0 0 1.8
298 25 45 0.5
298 50 57.5 0.5
298 75 70 4.7
299 0 0 1.8
299 25 45 0.5
299 50 57.5 0.5
299 75 70 4.7
300 0 0 1.8
300 25 45 0.5
300 50 57.5 0.5
300 75 70 4.7
301 0 0 1.8
301 25 45 0.5
301 50 57.5 0.5
301 75 70 4.7
302 0 0 1.8
302 25 45 0.5
302 50 57.5 0.5
302 75 70 4.7
303 0 0 1.8
303 25 45 0.5
303 50 57.5 0.5
303 75 70 4.7
304 0 0 1.8
304 25 45 0.5
304 50 57.5 0.5
304 75 70 4.7
305 0 0 1.8
305 25 45 0.5
305 50 57.5 0.5
305 75 70 4.7
306 0 0 1.8
306 25 45 0.5
306 50 57.5 0.5
306 75 70 4.7
307 0 0 1.8
307 25 45 0.5
307 50 57.5 0.5
307 75 70 4.7
308 0 0 1.8
308 25 45 0.5
308 50 57.5 0.5
308 75 70 4.7
309 0 0 1.8
309 25 45 0.5
309 50 57.5 0.5
309 75 70 4.7
310 0 0 1.8
310 25 45 0.5
310 50 57.5 0.5
310 75 70 4.7
311 0 0 1.8
311 25 45 0.5
311 50 57.5 0.5
311 75 70 4.7
312 0 0 1.8
312 25 45 0.5
312 50 57.5 0.5
312 75 70 4.7
313 0 0 1.8
313 25 45 0.5
313 50 57.5 0.5
313 75 70 4.7
314 0 0 1.8
314 25 45 0.5
314 50 57.5 0.5
314 75 70 4.7
315 0 0 1.8
315 25 45 0.5
315 50 57.5 0.5
315 75 70 4.7
316 0 0 1.8
316 25 45 0.5
316 50 57.5 0.5
316 75 70 4.7
317 0 0 1.8
317 25 45 0.5
317 50 57.5 0.5
317 75 70 4.7
318 0 0 1.8
318 25 45 0.5
318 50 57.5 0.5
318 75 70 4.7
319 0 0 1.8
319 25 45 0.5
319 50 57.5 0.5
319 75 70 4.7
320 0 0 1.8
320 25 45 0.5
320 50 57.5 0.5
320 75 70 4.7
321 0 0 1.8
321 25 45 0.5
321 50 57.5 0.5
321 75 70 4.7
322 0 0 1.8
322 25 45 0.5
322 50 57.5 0.5
322 75 70 4.7
323 0 0 1.8
323 25 45 0.5
323 50 57.5 0.5
323 75 70 4.7
324 0 0 1.8
324 25 45 0.5
324 50 57.5 0.5
324 75 70 4.7
325 0 0 1.8
325 25 45 0.5
325 50 57.5 0.5
325 75 70 4.7
326 0 0 1.8
326 25 45 0.5
326 50 57.5 0.5
326 75 70 4.7
327 0 0 1.8
327 25 45 0.5
327 50 57.5 0.5
327 75 70 4.7
328 0 0 1.8
328 25 45 0.5
328 50 57.5 0.5
328 75 70 4.7
329 0 0 1.8
329 25 45 0.5
329 50 57.5 0.5
329 75 70 4.7
330 0 0 1.8
330 25 45 0.5
330 50 57.5 0.5
330 75 70 4.7
331 0 0 1.8
331 25 45 0.5
331 50 57.5 0.5
331 75 70 4.7
332 0 0 1.8
332 25 45 0.5
332 50 57.5 0.5
332 75 70 4.7
333 0 0 1.8
333 25 45 0.5
333 50 57.5 0.5
333 75 70 4.7
334 0 0 1.8
334 25 45 0.5
334 50 57.5 0.5
334 75 70 4.7
335 0 0 1.8
335 25 45 0.5
335 50 57.5 0.5
335 75 70 4.7
336 0 0 1.8
336 25 45 0.5
336 50 57.5 0.5
336 75 70 4.7
337 0 0 1.8
337 25 45 0.5
337 50 57.5 0.5
337 75 70 4.7
338 0 0 1.8
338 25 45 0.5
338 50 57.5 0.5
338 75 70 4.7
339 0 0 1.8
339 25 45 0.5
339 50 57.5 0.5
339 75 70 4.7
340 0 0 1.8
340 25 45 0.5
340 50 57.5 0.5
340 75 70 4.7
341 0 0 1.8
341 25 45 0.5
341 50 57.5 0.5
341 75 70 4.7
342 0 0 1.8
342 25 45 0.5
342 50 57.5 0.5
342 75 70 4.7
343 0 0 1.8
343 25 45 0.5
343 50 57.5 0.5
343 75 70 4.7
344 0 0 1.8
344 25 45 0.5
344 50 57.5 0.5
344 75 70 4.7
345 0 0 1.8
345 25 45 0.5
345 50 57.5 0.5
345 75 70 4.7
346 0 0 1.8
346 25 45 0.5
346 50 57.5 0.5
346 75 70 4.7
347 0 0 1.8
347 25 45 0.5
347 50 57.5 0.5
347 75 70 4.7
348 0 0 1.8
348 25 45 0.5
348 50 57.5 0.5
348 75 70 4.7
349 0 0 1.8
349 25 45 0.5
349 50 57.5 0.5
349 75 70 4.7
350 0 0 1.8
350 25 45 0.5
350 50 57.5 0.5
350 75 70 4.7
351 0 0 1.8
351 25 45 0.5
351 50 57.5 0.5
351 75 70 4.7
352 0 0 1.8
352 25 45 0.5
352 50 57.5 0.5
352 75 70 4.7
353 0 0 1.8
353 25 45 0.5
353 50 57.5 0.5
353 75 70 4.7
354 0 0 1.8
354 25 45 0.5
354 50 57.5 0.5
354 75 70 4.7
355 0 0 1.8
355 25 45 0.5
355 50 57.5 0.5
355 75 70 4.7
356 0 0 1.8
356 25 45 0.5
356 50 57.5 0.5
356 75 70 4.7
357 0 0 1.8
357 25 45 0.5
357 50 57.5 0.5
357 75 70 4.7
358 0 0 1.8
358 25 45 0.5
358 50 57.5 0.5
358 75 70 4.7
359 0 0 1.8
359 25 45 0.5
359 50 57.5 0.5
359 75 70 4.7
360 0 0 1.8
360 25 45 0.5
360 50 57.5 0.5
360 75 70 4.7
361 0 0 1.8
361 25 45 0.5
361 50 57.5 0.5
361 75 70 4.7
362 0 0 1.8
362 25 45 0.5
362 50 57.5 0.5
362 75 70 4.7
363 0 0 1.8
363 25 45 0.5
363 50 57.5 0.5
363 75 70 4.7
364 0 0 1.8
364 25 45 0.5
364 50 57.5 0.5
364 75 70 4.7
365 0 0 1.8
365 25 45 0.5
365 50 57.5 0.5
365 75 70 4.7
366 0 0 1.8
366 25 45 0.5
366 50 57.5 0.5
366 75 70 4.7
367 0 0 1.8
367 25 45 0.5
367 50 57.5 0.5
367 75 70 4.7
368 0 0 1.8
368 25 45 0.5
368 50 57.5 0.5
368 75 70 4.7
369 0 0 1.8
369 25 45 0.5
369 50 57.5 0.5
369 75 70 4.7
370 0 0 1.8
370 25 45 0.5
370 50 57.5 0.5
370 75 70 4.7
371 0 0 1.8
371 25 45 0.5
371 50 57.5 0.5
371 75 70 4.7
372 0 0 1.8
372 25 45 0.5
372 50 57.5 0.5
372 75 70 4.7
373 0 0 1.8
373 25 45 0.5
373 50 57.5 0.5
373 75 70 4.7
374 0 0 1.8
374 25 45 0.5
374 50 57.5 0.5
374 75 70 4.7
375 0 0 1.8
375 25 45 0.5
375 50 57.5 0.5
375 75 70 4.7
376 0 0 1.8
376 25 45 0.5
376 50 57.5 0.5
376 75 70 4.7
377 0 0 1.8
377 25 45 0.5
377 50 57.5 0.5
377 75 70 4.7
378 0 0 1.8
378 25 45 0.5
378 50 57.5 0.5
378 75 70 4.7
379 0 0 1.8
379 25 45 0.5
379 50 57.5 0.5
379 75 70 4.7
380 0 0 1.8
380 25 45 0.5
380 50 57.5 0.5
380 75 70 4.7
381 0 0 1.8
381 25 45 0.5
381 50 57.5 0.5
381 75 70 4.7
382 0 0 1.8
382 25 45 0.5
382 50 57.5 0.5
382 75 70 4.7
383 0 0 1.8
383 25 45 0.5
383 50 57.5 0.5
383 75 70 4.7
384 0 0 1.8
384 25 45 0.5
384 50 57.5 0.5
384 75 70 4.7
385 0 0 1.8
385 25 45 0.5
385 50 57.5 0.5
385 75 70 4.7
386 0 0 1.8
386 25 45 0.5
386 50 57.5 0.5
386 75 70 4.7
387 0 0 1.8
387 25 45 0.5
387 50 57.5 0.5
387 75 70 4.7
388 0 0 1.8
388 25 45 0.5
388 50 57.5 0.5
388 75 70 4.7
389 0 0 1.8
389 25 45 0.5
389 50 57.5 0.5
389 75 70 4.7
390 0 0 1.8
390 25 45 0.5
390 50 57.5 0.5
390 75 70 4.7
391 0 0 1.8
391 25 45 0.5
391 50 57.5 0.5
391 75 70 4.7
392 0 0 1.8
392 25 45 0.5
392 50 57.5 0.5
392 75 70 4.7
393 0 0 1.8
393 25 45 0.5
393 50 57.5 0.5
393 75 70 4.7
394 0 0 1.8
394 25 45 0.5
394 50 57.5 0.5
394 75 70 4.7
395 0 0 1.8
395 25 45 0.5
395 50 57.5 0.5
395 75 70 4.7
396 0 0 1.8
396 25 45 0.5
396 50 57.5 0.5
396 75 70 4.7
397 0 0 1.8
397 25 45 0.5
397 50 57.5 0.5
397 75 70 4.7
398 0 0 1.8
398 25 45 0.5
398 50 57.5 0.5
398 75 70 4.7
399 0 0 1.8
399 25 45 0.5
399 50 57.5 0.5
399 75 70 4.7
400 0 0 1.8
400 25 45 0.5
400 50 57.5 0.5
400 75 70 4.7
401 0 0 1.8
401 25 45 0.5
401 50 57.5 0.5
401 75 70 4.7
402 0 0 1.8
402 25 45 0.5
402 50 57.5 0.5
402 75 70 4.7
403 0 0 1.8
403 25 45 0.5
403 50 57.5 0.5
403 75 70 4.7
404 0 0 1.8
404 25 45 0.5
404 50 57.5 0.5
404 75 70 4.7
405 0 0 1.8
405 25 45 0.5
405 50 57.5 0.5
405 75 70 4.7
406 0 0 1.8
406 25 45 0.5
406 50 57.5 0.5
406 75 70 4.7
407 0 0 1.8
407 25 45 0.5
407 50 57.5 0.5
407 75 70 4.7
408 0 0 1.8
408 25 45 0.5
408 50 57.5 0.5
408 75 70 4.7
409 0 0 1.8
409 25 45 0.5
409 50 57.5 0.5
409 75 70 4.7
410 0 0 1.8
410 25 45 0.5
410 50 57.5 0.5
410 75 70 4.7
411 0 0 1.8
411 25 45 0.5
411 50 57.5 0.5
411 75 70 4.7
412 0 0 1.8
412 25 45 0.5
412 50 57.5 0.5
412 75 70 4.7
413 0 0 1.8
413 25 45 0.5
413 50 57.5 0.5
413 75 70 4.7
414 0 0 1.8
414 25 45 0.5
414 50 57.5 0.5
414 75 70 4.7
415 0 0 1.8
415 25 45 0.5
415 50 57.5 0.5
415 75 70 4.7
416 0 0 1.8
416 25 45 0.5
416 50 57.5 0.5
416 75 70 4.7
417 0 0 1.8
417 25 45 0.5
417 50 57.5 0.5
417 75 70 4.7
418 0 0 1.8
418 25 45 0.5
418 50 57.5 0.5
418 75 70 4.7
419 0 0 1.8
419 25 45 0.5
419 50 57.5 0.5
419 75 70 4.7
420 0 0 1.8
420 25 45 0.5
420 50 57.5 0.5
420 75 70 4.7
421 0 0 1.8
421 25 45 0.5
421 50 57.5 0.5
421 75 70 4.7
422 0 0 1.8
422 25 45 0.5
422 50 57.5 0.5
422 75 70 4.7
423 0 0 1.8
423 25 45 0.5
423 50 57.5 0.5
423 75 70 4.7
424 0 0 1.8
424 25 45 0.5
424 50 57.5 0.5
424 75 70 4.7
425 0 0 1.8
425 25 45 0.5
425 50 57.5 0.5
425 75 70 4.7
426 0 0 1.8
426 25 45 0.5
426 50 57.5 0.5
426 75 70 4.7
427 0 0 1.8
427 25 45 0.5
427 50 57.5 0.5
427 75 70 4.7
428 0 0 1.8
428 25 45 0.5
428 50 57.5 0.5
428 75 70 4.7
429 0 0 1.8
429 25 45 0.5
429 50 57.5 0.5
429 75 70 4.7
430 0 0 1.8
430 25 45 0.5
430 50 57.5 0.5
430 75 70 4.7
431 0 0 1.8
431 25 45 0.5
431 50 57.5 0.5
431 75 70 4.7
432 0 0 1.8
432 25 45 0.5
432 50 57.5 0.5
432 75 70 4.7
433 0 0 1.8
433 25 45 0.5
433 50 57.5 0.5
433 75 70 4.7
434 0 0 1.8
434 25 45 0.5
434 50 57.5 0.5
434 75 70 4.7
435 0 0 1.8
435 25 45 0.5
435 50 57.5 0.5
435 75 70 4.7
436 0 0 1.8
436 25 45 0.5
436 50 57.5 0.5
436 75 70 4.7
437 0 0 1.8
437 25 45 0.5
437 50 57.5 0.5
437 75 70 4.7
438 0 0 1.8
438 25 45 0.5
438 50 57.5 0.5
438 75 70 4.7
439 0 0 1.8
439 25 45 0.5
439 50 57.5 0.5
439 75 70 4.7
440 0 0 1.8
440 25 45 0.5
440 50 57.5 0.5
440 75 70 4.7
441 0 0 1.8
441 25 45 0.5
441 50 57.5 0.5
441 75 70 4.7
442 0 0 1.8
442 25 45 0.5
442 50 57.5 0.5
442 75 70 4.7
443 0 0 1.8
443 25 45 0.5
443 50 57.5 0.5
443 75 70 4.7
444 0 0 1.8
444 25 45 0.5
444 50 57.5 0.5
444 75 70 4.7
445 0 0 1.8
445 25 45 0.5
445 50 57.5 0.5
445 75 70 4.7
446 0 0 1.8
446 25 45 0.5
446 50 57.5 0.5
446 75 70 4.7
447 0 0 1.8
447 25 45 0.5
447 50 57.5 0.5
447 75 70 4.7
448 0 0 1.8
448 25 45 0.5
448 50 57.5 0.5
448 75 70 4.7
449 0 0 1.8
449 25 45 0.5
449 50 57.5 0.5
449 75 70 4.7
450 0 0 1.8
450 25 45 0.5
450 50 57.5 0.5
450 75 70 4.7
451 0 0 1.8
451 25 45 0.5
451 50 57.5 0.5
451 75 70 4.7
452 0 0 1.8
452 25 45 0.5
452 50 57.5 0.5
452 75 70 4.7
453 0 0 1.8
453 25 45 0.5
453 50 57.5 0.5
453 75 70 4.7
454 0 0 1.8
454 25 45 0.5
454 50 57.5 0.5
454 75 70 4.7
455 0 0 1.8
455 25 45 0.5
455 50 57.5 0.5
455 75 70 4.7
456 0 0 1.8
456 25 45 0.5
456 50 57.5 0.5
456 75 70 4.7
457 0 0 1.8
457 25 45 0.5
457 50 57.5 0.5
457 75 70 4.7
458 0 0 1.8
458 25 45 0.5
458 50 57.5 0.5
458 75 70 4.7
459 0 0 1.8
459 25 45 0.5
459 50 57.5 0.5
459 75 70 4.7
460 0 0 1.8
460 25 45 0.5
460 50 57.5 0.5
460 75 70 4.7
461 0 0 1.8
461 25 45 0.5
461 50 57.5 0.5
461 75 70 4.7
462 0 0 1.8
462 25 45 0.5
462 50 57.5 0.5
462 75 70 4.7
463 0 0 1.8
463 25 45 0.5
463 50 57.5 0.5
463 75 70 4.7
464 0 0 1.8
464 25 45 0.5
464 50 57.5 0.5
464 75 70 4.7
465 0 0 1.8
465 25 45 0.5
465 50 57.5 0.5
465 75 70 4.7
466 0 0 1.8
466 25 45 0.5
466 50 57.5 0.5
466 75 70 4.7
467 0 0 1.8
467 25 45 0.5
467 50 57.5 0.5
467 75 70 4.7
468 0 0 1.8
468 25 45 0.5
468 50 57.5 0.5
468 75 70 4.7
469 0 0 1.8
469 25 45 0.5
469 50 57.5 0.5
469 75 70 4.7
470 0 0 1.8
470 25 45 0.5
470 50 57.5 0.5
470 75 70 4.7
471 0 0 1.8
471 25 45 0.5
471 50 57.5 0.5
471 75 70 4.7
472 0 0 1.8
472 25 45 0.5
472 50 57.5 0.5
472 75 70 4.7
473 0 0 1.8
473 25 45 0.5
473 50 57.5 0.5
473 75 70 4.7
474 0 0 1.8
474 25 45 0.5
474 50 57.5 0.5
474 75 70 4.7
475 0 0 1.8
475 25 45 0.5
475 50 57.5 0.5
475 75 70 4.7
476 0 0 1.8
476 25 45 0.5
476 50 57.5 0.5
476 75 70 4.7
477 0 0 1.8
477 25 45 0.5
477 50 57.5 0.5
477 75 70 4.7
478 0 0 1.8
478 25 45 0.5
478 50 57.5 0.5
478 75 70 4.7
479 0 0 1.8
479 25 45 0.5
479 50 57.5 0.5
479 75 70 4.7
480 0 0 1.8
480 25 45 0.5
480 50 57.5 0.5
480 75 70 4.7
481 0 0 1.8
481 25 45 0.5
481 50 57.5 0.5
481 75 70 4.7
482 0 0 1.8
482 25 45 0.5
482 50 57.5 0.5
482 75 70 4.7
483 0 0 1.8
483 25 45 0.5
483 50 57.5 0.5
483 75 70 4.7
484 0 0 1.8
484 25 45 0.5
484 50 57.5 0.5
484 75 70 4.7
485 0 0 1.8
485 25 45 0.5
485 50 57.5 0.5
485 75 70 4.7
486 0 0 1.8
486 25 45 0.5
486 50 57.5 0.5
486 75 70 4.7
487 0 0 1.8
487 25 45 0.5
487 50 57.5 0.5
487 75 70 4.7
488 0 0 1.8
488 25 45 0.5
488 50 57.5 0.5
488 75 70 4.7
489 0 0 1.8
489 25 45 0.5
489 50 57.5 0.5
489 75 70 4.7
490 0 0 1.8
490 25 45 0.5
490 50 57.5 0.5
490 75 70 4.7
491 0 0 1.8
491 25 45 0.5
491 50 57.5 0.5
491 75 70 4.7
492 0 0 1.8
492 25 45 0.5
492 50 57.5 0.5
492 75 70 4.7
493 0 0 1.8
493 25 45 0.5
493 50 57.5 0.5
493 75 70 4.7
494 0 0 1.8
494 25 45 0.5
494 50 57.5 0.5
494 75 70 4.7
495 0 0 1.8
495 25 45 0.5
495 50 57.5 0.5
495 75 70 4.7
496 0 0 1.8
496 25 45 0.5
496 50 57.5 0.5
496 75 70 4.7
497 0 0 1.8
497 25 45 0.5
497 50 57.5 0.5
497 75 70 4.7
498 0 0 1.8
498 25 45 0.5
498 50 57.5 0.5
498 75 70 4.7
499 0 0 1.8
499 25 45 0.5
499 50 57.5 0.5
499 75 70 4.7
